Route #1: 12 18 31 20 22 42 4 29 9 6 34
Route #2: 32
Route #3: 30 45 41 38 19 27 25 35 7 2 24 28
Route #4: 3 13 10 23 16 33 44 21 11
Route #5: 15 36 39 26 1
Route #6: 8 14 5 43 37 17 40
cost 1664.723321446506
